c Standarized MaxSat Instance
c{
c "sha1sum": "aa1fde6b7ebd22a94860ea324925b963386ef80a",
c "nvars": 40,
c "ncls": 744,
c "nhards": 0,
c "nhard_len_stats":
c    { "min": 0, "max": 0, "ave": 0.00,
c      "stddev": 0.00 },
c "nsofts": 744,
c "nsoft_len_stats":
c    { "min": 2, "max": 2, "ave": 2.00,
c      "stddev": 0.00 },
c "nsoft_wts": 10,
c "soft_wt_stats":
c    { "min": 1, "max": 10, "ave": 5.68,
c      "stddev": 2.86 }
c}
c------------------------------------------------------------
c FILE: San1000.clq
c
c SOURCE: Laura Sanchis (laura@cs.colgate.edu)
c
c DESCRIPTION:  Randomly generated graph of similar size to "san"
c               graphs, but with differenct clique characteristics
c
c REFERENCE: "Test Case Construction for the Vertex Cover Problem", 
c DIMACS Workshop on Computational Support for Discrete Mathematics, 
c March, 1992, with additional work in a to be published technical
c report.
c
c 1000 vertices 250500 edges 15 max clique
c 1000 249000 985 1499 40473 7
p wcnf 40 744 4229
9 1 4 0
9 -1 -4 0
4 1 7 0
4 -1 -7 0
8 1 9 0
8 -1 -9 0
8 1 12 0
8 -1 -12 0
10 1 14 0
10 -1 -14 0
2 1 15 0
2 -1 -15 0
4 1 17 0
4 -1 -17 0
8 1 18 0
8 -1 -18 0
3 1 19 0
3 -1 -19 0
6 1 21 0
6 -1 -21 0
5 1 23 0
5 -1 -23 0
7 1 24 0
7 -1 -24 0
4 1 25 0
4 -1 -25 0
6 1 27 0
6 -1 -27 0
10 1 28 0
10 -1 -28 0
10 1 31 0
10 -1 -31 0
7 1 32 0
7 -1 -32 0
8 1 33 0
8 -1 -33 0
2 1 36 0
2 -1 -36 0
7 1 38 0
7 -1 -38 0
1 1 39 0
1 -1 -39 0
3 1 40 0
3 -1 -40 0
2 2 4 0
2 -2 -4 0
9 2 6 0
9 -2 -6 0
2 2 7 0
2 -2 -7 0
5 2 8 0
5 -2 -8 0
2 2 10 0
2 -2 -10 0
2 2 11 0
2 -2 -11 0
10 2 14 0
10 -2 -14 0
3 2 16 0
3 -2 -16 0
6 2 20 0
6 -2 -20 0
9 2 22 0
9 -2 -22 0
7 2 26 0
7 -2 -26 0
3 2 29 0
3 -2 -29 0
7 2 35 0
7 -2 -35 0
6 2 39 0
6 -2 -39 0
5 3 4 0
5 -3 -4 0
10 3 6 0
10 -3 -6 0
3 3 7 0
3 -3 -7 0
8 3 8 0
8 -3 -8 0
6 3 10 0
6 -3 -10 0
8 3 11 0
8 -3 -11 0
5 3 14 0
5 -3 -14 0
9 3 16 0
9 -3 -16 0
3 3 20 0
3 -3 -20 0
4 3 22 0
4 -3 -22 0
9 3 29 0
9 -3 -29 0
10 3 35 0
10 -3 -35 0
1 3 39 0
1 -3 -39 0
10 4 5 0
10 -4 -5 0
6 4 7 0
6 -4 -7 0
1 4 8 0
1 -4 -8 0
2 4 10 0
2 -4 -10 0
7 4 11 0
7 -4 -11 0
9 4 14 0
9 -4 -14 0
4 4 16 0
4 -4 -16 0
1 4 20 0
1 -4 -20 0
1 4 22 0
1 -4 -22 0
5 4 29 0
5 -4 -29 0
1 4 35 0
1 -4 -35 0
3 4 36 0
3 -4 -36 0
10 4 39 0
10 -4 -39 0
10 5 6 0
10 -5 -6 0
9 5 7 0
9 -5 -7 0
3 5 8 0
3 -5 -8 0
6 5 10 0
6 -5 -10 0
4 5 11 0
4 -5 -11 0
8 5 12 0
8 -5 -12 0
6 5 14 0
6 -5 -14 0
7 5 16 0
7 -5 -16 0
6 5 17 0
6 -5 -17 0
1 5 18 0
1 -5 -18 0
5 5 20 0
5 -5 -20 0
10 5 22 0
10 -5 -22 0
10 5 27 0
10 -5 -27 0
8 5 28 0
8 -5 -28 0
3 5 29 0
3 -5 -29 0
8 5 33 0
8 -5 -33 0
7 5 35 0
7 -5 -35 0
4 5 39 0
4 -5 -39 0
7 6 7 0
7 -6 -7 0
2 6 8 0
2 -6 -8 0
5 6 10 0
5 -6 -10 0
9 6 11 0
9 -6 -11 0
9 6 14 0
9 -6 -14 0
4 6 16 0
4 -6 -16 0
3 6 20 0
3 -6 -20 0
9 6 22 0
9 -6 -22 0
4 6 25 0
4 -6 -25 0
7 6 29 0
7 -6 -29 0
10 6 35 0
10 -6 -35 0
6 6 37 0
6 -6 -37 0
7 6 39 0
7 -6 -39 0
9 7 8 0
9 -7 -8 0
5 7 10 0
5 -7 -10 0
10 7 11 0
10 -7 -11 0
4 7 14 0
4 -7 -14 0
9 7 16 0
9 -7 -16 0
7 7 19 0
7 -7 -19 0
10 7 20 0
10 -7 -20 0
5 7 22 0
5 -7 -22 0
3 7 23 0
3 -7 -23 0
10 7 29 0
10 -7 -29 0
10 7 34 0
10 -7 -34 0
2 7 35 0
2 -7 -35 0
9 7 39 0
9 -7 -39 0
7 8 14 0
7 -8 -14 0
5 8 16 0
5 -8 -16 0
7 8 25 0
7 -8 -25 0
3 8 29 0
3 -8 -29 0
8 8 35 0
8 -8 -35 0
4 9 13 0
4 -9 -13 0
5 9 15 0
5 -9 -15 0
3 9 17 0
3 -9 -17 0
2 9 19 0
2 -9 -19 0
3 9 21 0
3 -9 -21 0
6 9 23 0
6 -9 -23 0
5 9 24 0
5 -9 -24 0
2 9 25 0
2 -9 -25 0
10 9 26 0
10 -9 -26 0
2 9 27 0
2 -9 -27 0
2 9 28 0
2 -9 -28 0
5 9 30 0
5 -9 -30 0
8 9 31 0
8 -9 -31 0
10 9 32 0
10 -9 -32 0
10 9 33 0
10 -9 -33 0
7 9 34 0
7 -9 -34 0
4 9 36 0
4 -9 -36 0
8 9 37 0
8 -9 -37 0
4 9 38 0
4 -9 -38 0
3 9 40 0
3 -9 -40 0
3 10 14 0
3 -10 -14 0
6 10 16 0
6 -10 -16 0
3 10 26 0
3 -10 -26 0
2 10 29 0
2 -10 -29 0
8 10 33 0
8 -10 -33 0
2 10 35 0
2 -10 -35 0
8 10 36 0
8 -10 -36 0
2 10 40 0
2 -10 -40 0
8 11 14 0
8 -11 -14 0
1 11 16 0
1 -11 -16 0
10 11 23 0
10 -11 -23 0
1 11 29 0
1 -11 -29 0
6 11 33 0
6 -11 -33 0
2 11 35 0
2 -11 -35 0
3 12 13 0
3 -12 -13 0
8 12 15 0
8 -12 -15 0
8 12 17 0
8 -12 -17 0
7 12 19 0
7 -12 -19 0
10 12 21 0
10 -12 -21 0
7 12 23 0
7 -12 -23 0
8 12 24 0
8 -12 -24 0
1 12 25 0
1 -12 -25 0
2 12 26 0
2 -12 -26 0
6 12 27 0
6 -12 -27 0
1 12 28 0
1 -12 -28 0
1 12 30 0
1 -12 -30 0
3 12 31 0
3 -12 -31 0
5 12 32 0
5 -12 -32 0
9 12 33 0
9 -12 -33 0
6 12 34 0
6 -12 -34 0
8 12 36 0
8 -12 -36 0
1 12 37 0
1 -12 -37 0
2 12 38 0
2 -12 -38 0
10 12 40 0
10 -12 -40 0
3 13 14 0
3 -13 -14 0
9 13 15 0
9 -13 -15 0
2 13 17 0
2 -13 -17 0
10 13 18 0
10 -13 -18 0
1 13 19 0
1 -13 -19 0
9 13 21 0
9 -13 -21 0
1 13 22 0
1 -13 -22 0
1 13 23 0
1 -13 -23 0
10 13 24 0
10 -13 -24 0
6 13 25 0
6 -13 -25 0
2 13 27 0
2 -13 -27 0
2 13 28 0
2 -13 -28 0
4 13 31 0
4 -13 -31 0
10 13 32 0
10 -13 -32 0
9 13 33 0
9 -13 -33 0
4 13 36 0
4 -13 -36 0
6 13 38 0
6 -13 -38 0
6 13 40 0
6 -13 -40 0
5 14 16 0
5 -14 -16 0
7 14 20 0
7 -14 -20 0
1 14 22 0
1 -14 -22 0
6 14 27 0
6 -14 -27 0
8 14 29 0
8 -14 -29 0
4 14 32 0
4 -14 -32 0
10 14 33 0
10 -14 -33 0
6 14 35 0
6 -14 -35 0
9 14 39 0
9 -14 -39 0
8 15 17 0
8 -15 -17 0
7 15 18 0
7 -15 -18 0
1 15 21 0
1 -15 -21 0
8 15 24 0
8 -15 -24 0
9 15 25 0
9 -15 -25 0
10 15 26 0
10 -15 -26 0
9 15 27 0
9 -15 -27 0
9 15 28 0
9 -15 -28 0
10 15 30 0
10 -15 -30 0
8 15 31 0
8 -15 -31 0
10 15 33 0
10 -15 -33 0
10 15 34 0
10 -15 -34 0
7 15 36 0
7 -15 -36 0
5 15 37 0
5 -15 -37 0
2 15 38 0
2 -15 -38 0
9 15 40 0
9 -15 -40 0
9 16 20 0
9 -16 -20 0
1 16 22 0
1 -16 -22 0
7 16 29 0
7 -16 -29 0
3 16 30 0
3 -16 -30 0
7 16 35 0
7 -16 -35 0
3 16 39 0
3 -16 -39 0
8 17 18 0
8 -17 -18 0
4 17 19 0
4 -17 -19 0
4 17 21 0
4 -17 -21 0
3 17 23 0
3 -17 -23 0
1 17 24 0
1 -17 -24 0
7 17 25 0
7 -17 -25 0
3 17 26 0
3 -17 -26 0
7 17 27 0
7 -17 -27 0
6 17 28 0
6 -17 -28 0
10 17 30 0
10 -17 -30 0
3 17 31 0
3 -17 -31 0
6 17 32 0
6 -17 -32 0
8 17 33 0
8 -17 -33 0
2 17 34 0
2 -17 -34 0
5 17 36 0
5 -17 -36 0
6 17 37 0
6 -17 -37 0
10 17 38 0
10 -17 -38 0
5 17 40 0
5 -17 -40 0
4 18 19 0
4 -18 -19 0
9 18 20 0
9 -18 -20 0
5 18 21 0
5 -18 -21 0
1 18 23 0
1 -18 -23 0
4 18 24 0
4 -18 -24 0
6 18 25 0
6 -18 -25 0
9 18 26 0
9 -18 -26 0
3 18 27 0
3 -18 -27 0
7 18 28 0
7 -18 -28 0
5 18 30 0
5 -18 -30 0
5 18 31 0
5 -18 -31 0
4 18 32 0
4 -18 -32 0
8 18 33 0
8 -18 -33 0
2 18 34 0
2 -18 -34 0
7 18 36 0
7 -18 -36 0
1 18 37 0
1 -18 -37 0
5 18 38 0
5 -18 -38 0
7 18 40 0
7 -18 -40 0
7 19 21 0
7 -19 -21 0
7 19 24 0
7 -19 -24 0
4 19 25 0
4 -19 -25 0
2 19 26 0
2 -19 -26 0
7 19 27 0
7 -19 -27 0
7 19 28 0
7 -19 -28 0
8 19 30 0
8 -19 -30 0
4 19 31 0
4 -19 -31 0
8 19 33 0
8 -19 -33 0
3 19 34 0
3 -19 -34 0
10 19 36 0
10 -19 -36 0
7 19 37 0
7 -19 -37 0
7 19 38 0
7 -19 -38 0
3 19 40 0
3 -19 -40 0
6 20 29 0
6 -20 -29 0
1 20 30 0
1 -20 -30 0
3 20 35 0
3 -20 -35 0
9 21 23 0
9 -21 -23 0
7 21 24 0
7 -21 -24 0
1 21 25 0
1 -21 -25 0
2 21 26 0
2 -21 -26 0
4 21 30 0
4 -21 -30 0
6 21 32 0
6 -21 -32 0
6 21 33 0
6 -21 -33 0
7 21 34 0
7 -21 -34 0
3 21 37 0
3 -21 -37 0
8 21 38 0
8 -21 -38 0
3 21 40 0
3 -21 -40 0
4 22 29 0
4 -22 -29 0
2 22 35 0
2 -22 -35 0
10 22 38 0
10 -22 -38 0
1 23 24 0
1 -23 -24 0
9 23 25 0
9 -23 -25 0
4 23 26 0
4 -23 -26 0
2 23 27 0
2 -23 -27 0
5 23 28 0
5 -23 -28 0
10 23 29 0
10 -23 -29 0
10 23 30 0
10 -23 -30 0
8 23 31 0
8 -23 -31 0
7 23 33 0
7 -23 -33 0
2 23 34 0
2 -23 -34 0
7 23 36 0
7 -23 -36 0
4 23 37 0
4 -23 -37 0
8 23 38 0
8 -23 -38 0
10 23 40 0
10 -23 -40 0
10 24 26 0
10 -24 -26 0
9 24 27 0
9 -24 -27 0
3 24 28 0
3 -24 -28 0
8 24 30 0
8 -24 -30 0
6 24 31 0
6 -24 -31 0
3 24 32 0
3 -24 -32 0
10 24 34 0
10 -24 -34 0
10 24 36 0
10 -24 -36 0
9 24 37 0
9 -24 -37 0
5 25 26 0
5 -25 -26 0
6 25 27 0
6 -25 -27 0
2 25 28 0
2 -25 -28 0
3 25 30 0
3 -25 -30 0
9 25 31 0
9 -25 -31 0
5 25 32 0
5 -25 -32 0
5 25 34 0
5 -25 -34 0
9 25 36 0
9 -25 -36 0
5 25 37 0
5 -25 -37 0
3 26 27 0
3 -26 -27 0
2 26 28 0
2 -26 -28 0
7 26 31 0
7 -26 -31 0
8 26 32 0
8 -26 -32 0
2 26 33 0
2 -26 -33 0
7 26 36 0
7 -26 -36 0
5 26 38 0
5 -26 -38 0
9 26 40 0
9 -26 -40 0
8 27 30 0
8 -27 -30 0
2 27 32 0
2 -27 -32 0
3 27 33 0
3 -27 -33 0
5 27 34 0
5 -27 -34 0
2 27 37 0
2 -27 -37 0
2 27 38 0
2 -27 -38 0
4 27 40 0
4 -27 -40 0
4 28 30 0
4 -28 -30 0
10 28 32 0
10 -28 -32 0
10 28 33 0
10 -28 -33 0
7 28 34 0
7 -28 -34 0
9 28 37 0
9 -28 -37 0
9 28 38 0
9 -28 -38 0
5 28 40 0
5 -28 -40 0
4 29 39 0
4 -29 -39 0
4 29 40 0
4 -29 -40 0
7 30 31 0
7 -30 -31 0
7 30 32 0
7 -30 -32 0
3 30 33 0
3 -30 -33 0
2 30 36 0
2 -30 -36 0
1 30 38 0
1 -30 -38 0
2 30 40 0
2 -30 -40 0
7 31 32 0
7 -31 -32 0
4 31 33 0
4 -31 -33 0
3 31 34 0
3 -31 -34 0
4 31 35 0
4 -31 -35 0
1 31 37 0
1 -31 -37 0
5 31 38 0
5 -31 -38 0
10 31 39 0
10 -31 -39 0
6 31 40 0
6 -31 -40 0
3 32 33 0
3 -32 -33 0
7 32 34 0
7 -32 -34 0
8 32 36 0
8 -32 -36 0
5 32 37 0
5 -32 -37 0
2 32 38 0
2 -32 -38 0
9 32 40 0
9 -32 -40 0
7 33 34 0
7 -33 -34 0
6 33 36 0
6 -33 -36 0
3 33 37 0
3 -33 -37 0
6 34 35 0
6 -34 -35 0
5 34 36 0
5 -34 -36 0
9 34 38 0
9 -34 -38 0
4 34 40 0
4 -34 -40 0
3 35 36 0
3 -35 -36 0
4 35 37 0
4 -35 -37 0
8 35 39 0
8 -35 -39 0
7 36 37 0
7 -36 -37 0
10 36 38 0
10 -36 -38 0
4 36 40 0
4 -36 -40 0
9 37 38 0
9 -37 -38 0
2 37 40 0
2 -37 -40 0
